numOfMachines = 4;
numOfRobots = 2;
numOfJobs = 6;
maxOperations = 4;
operationsCount = [4,3,4,3,3,4];

operation = [
[<0,0,0>,<1,22,0>,<3,38,0>,<2,32,1>,<4,26,0>],
[<0,0,0>,<2,42,0>,<3,32,0>,<4,28,0>],
[<0,0,0>,<3,16,0>,<2,20,1>,<1,28,0>,<4,18,0>],
[<0,0,0>,<2,26,0>,<3,40,0>,<4,20,1>],
[<0,0,0>,<1,18,0>,<3,32,1>,<4,36,0>],
[<0,0,0>,<2,38,0>,<1,42,0>,<3,22,0>,<4,30,1>]
];